NAME : n80w180.005.632.tour
COMMENT : Length = 632
COMMENT : Found by LKH [Keld Helsgaun] Tue Nov  7 19:45:07 2017
TYPE : TOUR
DIMENSION : 81
TOUR_SECTION
1
17
73
46
6
80
34
74
66
32
49
78
5
72
45
10
56
64
51
62
22
58
25
27
77
48
28
53
54
63
4
14
61
69
33
55
75
57
41
47
44
29
9
59
11
40
79
21
70
8
15
16
7
65
35
50
38
23
76
31
36
2
68
30
19
37
42
12
13
71
26
3
39
20
18
67
60
24
81
43
52
-1
EOF
